c at-most-one of 5 pidgeon in 4 holes
c p1@1 1
c p2@1 2
c p3@1 3
c p4@1 4
c p5@1 5
c p1@2 6
c p2@2 7
c p3@2 8
c p4@2 9
c p5@2 10
c p1@3 11
c p2@3 12
c p3@3 13
c p4@3 14
c p5@3 15
c p1@4 16
c p2@4 17
c p3@4 18
c p4@4 19
c p5@4 20
p cnf 20 45
-1 -2 0
-1 -3 0
-1 -4 0
-1 -5 0
-2 -3 0
-2 -4 0
-2 -5 0
-3 -4 0
-3 -5 0
-4 -5 0
-6 -7 0
-6 -8 0
-6 -9 0
-6 -10 0
-7 -8 0
-7 -9 0
-7 -10 0
-8 -9 0
-8 -10 0
-9 -10 0
-11 -12 0
-11 -13 0
-11 -14 0
-11 -15 0
-12 -13 0
-12 -14 0
-12 -15 0
-13 -14 0
-13 -15 0
-14 -15 0
-16 -17 0
-16 -18 0
-16 -19 0
-16 -20 0
-17 -18 0
-17 -19 0
-17 -20 0
-18 -19 0
-18 -20 0
-19 -20 0
1 6 11 16 0
2 7 12 17 0
3 8 13 18 0
4 9 14 19 0
5 10 15 20 0
